/*********************************************
 * OPL 12.9.0.0 Data
 * Author: jfb2444
 * Creation Date: Aug 22, 2020 at 11:56:47 AM
 *********************************************/

 n = 8;							
 visNorth	= [-1,3,-1,-1,4,4,-1,3]; 	
 visSouth 	= [2,-1,-1,5,3,-1,-1,2]; 	
 visWest	= [2,2,6,-1,3,4,-1,3]; 	
 visEast	= [-1,4,-1,3,4,-1,3,-1]; 	
 cellClue 	= [	[-1,-1,-1,-1,-1,-1,-1,-1],
 				[-1,-1,-1,5,-1,-1,-1,-1],
 				[-1,-1,-1,-1,-1,-1,-1,-1],
 				[-1,-1,-1,4,-1,5,-1,-1] ,
 				[-1,-1,-1,-1,-1,-1,-1,2],
 				[-1,-1,-1,-1,-1,-1,-1,-1],
 				[-1,-1,-1,-1,-1,-1,-1,-1],
 				[-1,-1,-1,-1,3,-1,-1,-1] ]; 	